98
9
0 1 99 197 295 393 491 589 687
9
0 2 100 198 296 394 492 590 688
9
0 3 101 199 297 395 493 591 689
9
0 4 102 200 298 396 494 592 690
9
0 5 103 201 299 397 495 593 691
9
0 6 104 202 300 398 496 594 692
9
0 7 105 203 301 399 497 595 693
9
0 8 106 204 302 400 498 596 694
9
0 9 107 205 303 401 499 597 695
9
0 10 108 206 304 402 500 598 696
9
0 11 109 207 305 403 501 599 697
9
0 12 110 208 306 404 502 600 698
9
0 13 111 209 307 405 503 601 699
9
0 14 112 210 308 406 504 602 700
9
0 15 113 211 309 407 505 603 701
9
0 16 114 212 310 408 506 604 702
9
0 17 115 213 311 409 507 605 703
9
0 18 116 214 312 410 508 606 704
9
0 19 117 215 313 411 509 607 705
9
0 20 118 216 314 412 510 608 706
9
0 21 119 217 315 413 511 609 707
9
0 22 120 218 316 414 512 610 708
9
0 23 121 219 317 415 513 611 709
9
0 24 122 220 318 416 514 612 710
9
0 25 123 221 319 417 515 613 711
9
0 26 124 222 320 418 516 614 712
9
0 27 125 223 321 419 517 615 713
9
0 28 126 224 322 420 518 616 714
9
0 29 127 225 323 421 519 617 715
9
0 30 128 226 324 422 520 618 716
9
0 31 129 227 325 423 521 619 717
9
0 32 130 228 326 424 522 620 718
9
0 33 131 229 327 425 523 621 719
9
0 34 132 230 328 426 524 622 720
9
0 35 133 231 329 427 525 623 721
9
0 36 134 232 330 428 526 624 722
9
0 37 135 233 331 429 527 625 723
9
0 38 136 234 332 430 528 626 724
9
0 39 137 235 333 431 529 627 725
9
0 40 138 236 334 432 530 628 726
9
0 41 139 237 335 433 531 629 727
9
0 42 140 238 336 434 532 630 728
9
0 43 141 239 337 435 533 631 729
9
0 44 142 240 338 436 534 632 730
9
0 45 143 241 339 437 535 633 731
9
0 46 144 242 340 438 536 634 732
9
0 47 145 243 341 439 537 635 733
9
0 48 146 244 342 440 538 636 734
9
0 49 147 245 343 441 539 637 735
9
0 50 148 246 344 442 540 638 736
9
0 51 149 247 345 443 541 639 737
9
0 52 150 248 346 444 542 640 738
9
0 53 151 249 347 445 543 641 739
9
0 54 152 250 348 446 544 642 740
9
0 55 153 251 349 447 545 643 741
9
0 56 154 252 350 448 546 644 742
9
0 57 155 253 351 449 547 645 743
9
0 58 156 254 352 450 548 646 744
9
0 59 157 255 353 451 549 647 745
9
0 60 158 256 354 452 550 648 746
9
0 61 159 257 355 453 551 649 747
9
0 62 160 258 356 454 552 650 748
8
0 63 161 259 357 455 553 651
8
0 64 162 260 358 456 554 652
8
0 65 163 261 359 457 555 653
8
0 66 164 262 360 458 556 654
8
0 67 165 263 361 459 557 655
8
0 68 166 264 362 460 558 656
8
0 69 167 265 363 461 559 657
8
0 70 168 266 364 462 560 658
8
0 71 169 267 365 463 561 659
8
0 72 170 268 366 464 562 660
8
0 73 171 269 367 465 563 661
8
0 74 172 270 368 466 564 662
8
0 75 173 271 369 467 565 663
8
0 76 174 272 370 468 566 664
8
0 77 175 273 371 469 567 665
8
0 78 176 274 372 470 568 666
8
0 79 177 275 373 471 569 667
8
0 80 178 276 374 472 570 668
8
0 81 179 277 375 473 571 669
8
0 82 180 278 376 474 572 670
8
0 83 181 279 377 475 573 671
8
0 84 182 280 378 476 574 672
8
0 85 183 281 379 477 575 673
8
0 86 184 282 380 478 576 674
8
0 87 185 283 381 479 577 675
8
0 88 186 284 382 480 578 676
8
0 89 187 285 383 481 579 677
8
0 90 188 286 384 482 580 678
8
0 91 189 287 385 483 581 679
8
0 92 190 288 386 484 582 680
8
0 93 191 289 387 485 583 681
8
0 94 192 290 388 486 584 682
8
0 95 193 291 389 487 585 683
8
0 96 194 292 390 488 586 684
8
0 97 195 293 391 489 587 685
8
0 98 196 294 392 490 588 686
